641,326
792,64
560,318
1051,286
899,248
366,635
963,794
448,173
1071,406
1023,295
681,166
672,378
653,229
435,745
764,662
935,152
734,379
1184,485
575,300
999,724
729,441
799,424
765,939
718,169
1131,406
975,257
1062,25
766,379
871,780
471,406
708,491
411,406
414,270
510,351
385,360
765,939
672,347
387,257
531,406
